Instance name : R104
Authors : bauke
Date :    21-05-13
Reference : N/A
Solution
Route 1 : 6 94 96 59 93 99 84 17 45 83 5 60 89
Route 2 : 18 82 48 46 8 47 36 49 19 7
Route 3 : 28 1 69 76 53 40 2 13 95 97 58
Route 4 : 42 43 15 87 57 41 22 74 73 21 26
Route 5 : 52 88 62 11 64 63 90 32 10 31 27
Route 6 : 68 80 24 29 79 78 34 81 33 3 77 12
Route 7 : 70 30 20 66 9 35 65 71 51 50
Route 8 : 72 75 56 23 67 39 55 4 25 54
Route 9 : 92 98 14 44 38 86 16 61 85 91 100 37

